
  32    4
  10   10   10   10

   0   0   0   0   0  10 2 3 4 5 8 10 11 12 13 19 
   7  10  10  10  10   5 31 26 21 18 7 
   7  10  10  10  10   3 16 15 6 
   6  10  10  10  10   3 18 15 14 
  10  10  10  10  10   2 16 9 
   9  10  10  10  10   3 24 23 18 
   7  10  10  10  10   3 23 20 17 
   2  10  10  10  10   3 24 23 18 
   6  10  10  10  10   2 24 18 
   1  10  10  10  10   2 24 18 
   1  10  10  10  10   3 30 24 22 
  10  10  10  10  10   2 25 18 
   2  10  10  10  10   4 30 29 26 25 
   3  10  10  10  10   2 25 23 
   9  10  10  10  10   3 30 28 24 
   3  10  10  10  10   3 29 26 25 
   9  10  10  10  10   3 30 29 24 
   7  10  10  10  10   2 30 22 
   9  10  10  10  10   2 27 23 
   9  10  10  10  10   3 30 28 25 
  10  10  10  10  10   1 22 
   9  10  10  10  10   3 29 28 27 
   5  10  10  10  10   3 30 29 28 
   4  10  10  10  10   1 25 
   8  10  10  10  10   1 27 
   4  10  10  10  10   1 28 
   1  10  10  10  10   1 32
   7  10  10  10  10   1 32
   9  10  10  10  10   1 32
   2  10  10  10  10   1 32
   6  10  10  10  10   1 32
   0   0   0   0   0   0 
